Set parameter TSPort to value 51199
Set parameter TokenServer to value "open-license1.lanl.gov"
Set parameter TimeLimit to value 128
Set parameter Threads to value 1
Gurobi Optimizer version 10.0.3 build v10.0.3rc0 (linux64)

CPU model: Intel(R) Xeon(R) CPU E5-2695 v4 @ 2.10GHz, instruction set [SSE2|AVX|AVX2]
Thread count: 36 physical cores, 72 logical processors, using up to 1 threads

Optimize a model with 0 rows, 383 columns and 0 nonzeros
Model fingerprint: 0x22e4f355
Model has 1592 quadratic objective terms
Variable types: 0 continuous, 383 integer (383 binary)
Coefficient statistics:
  Matrix range     [0e+00, 0e+00]
  Objective range  [2e+00, 3e+01]
  QObjective range [8e+00, 8e+00]
  Bounds range     [1e+00, 1e+00]
  RHS range        [0e+00, 0e+00]
Found heuristic solution: objective 0.0000000
Found heuristic solution: objective -636.0000000
Found heuristic solution: objective -2238.000000
Found heuristic solution: objective -2260.000000
Presolve time: 0.21s
Presolved: 1592 rows, 1975 columns, 4776 nonzeros
Variable types: 0 continuous, 1975 integer (1975 binary)

Root relaxation: objective -3.008000e+03, 472 iterations, 0.01 seconds (0.00 work units)

    Nodes    |    Current Node    |     Objective Bounds      |     Work
 Expl Unexpl |  Obj  Depth IntInf | Incumbent    BestBd   Gap | It/Node Time

     0     0 -3008.0000    0  383 -2260.0000 -3008.0000  33.1%     -    0s
     0     0 -2744.3333    0  540 -2260.0000 -2744.3333  21.4%     -    0s
     0     0 -2742.3333    0  541 -2260.0000 -2742.3333  21.3%     -    0s
     0     0 -2683.8750    0  590 -2260.0000 -2683.8750  18.8%     -    0s
     0     0 -2683.8750    0  576 -2260.0000 -2683.8750  18.8%     -    0s
     0     2 -2683.8750    0  574 -2260.0000 -2683.8750  18.8%     -    1s
   525   481 -2518.1573    6  960 -2260.0000 -2518.1573  11.4%  88.8    5s
   543   493 -2412.6698   16 1573 -2260.0000 -2412.6698  6.76%  85.8   10s
   557   503 -2334.3333   55 1667 -2260.0000 -2387.8385  5.66%  83.7   15s
   577   516 -2374.1483    8 1697 -2260.0000 -2374.1483  5.05%  80.8   20s
   602   533 -2364.3171   43 1751 -2260.0000 -2364.3171  4.62%  77.4   25s
   641   559 -2356.5802   15 1772 -2260.0000 -2356.5802  4.27%  72.7   30s
   689   591 -2278.0000   69 1797 -2260.0000 -2351.1806  4.03%  67.7   35s
   730   620 -2349.6347    9 1699 -2260.0000 -2349.6347  3.97%   205   41s
   741   627 -2349.1690   15 1798 -2260.0000 -2349.1690  3.95%   202   45s
   771   647 -2347.0244   12 1828 -2260.0000 -2347.0244  3.85%   194   50s
   807   671 -2345.2192    6 1819 -2260.0000 -2345.2192  3.77%   186   55s
   847   698 -2342.3040   38 1832 -2260.0000 -2342.3040  3.64%   177   60s
   882   721 -2339.6397   32 1839 -2260.0000 -2339.6397  3.52%   170   65s
   902   734 -2338.9086   43 1826 -2260.0000 -2338.9086  3.49%   166   74s
   903   737 -2336.8741   31 1782 -2260.0000 -2338.7160  3.48%   237   75s
   910   742 -2331.0083   34 1691 -2260.0000 -2336.5623  3.39%   250   80s
   919   748 -2320.1842   39 1592 -2260.0000 -2336.5623  3.39%   269   85s
   933   757 -2308.1344   46 1505 -2260.0000 -2336.5623  3.39%   286   90s
   952   770 -2287.2060   55 1392 -2260.0000 -2336.5623  3.39%   304   95s
   991   782 -2333.5411   32 1734 -2260.0000 -2336.5394  3.39%   319  100s
   999   787 -2322.5854   36 1683 -2260.0000 -2336.5394  3.39%   332  105s
  1010   794 -2312.4756   42 1525 -2260.0000 -2336.5394  3.39%   348  110s
  1028   806 -2296.9548   51 1354 -2260.0000 -2336.5394  3.39%   363  115s
  1058   826 -2278.6192   66 1158 -2260.0000 -2336.5394  3.39%   377  120s
  1093   838 -2325.7521   35 1673 -2260.0000 -2335.1458  3.33%   385  125s

Cutting planes:
  Gomory: 7
  MIR: 59
  Flow cover: 817
  Zero half: 268
  Mod-K: 1
  RLT: 64
  BQP: 84

Explored 1097 nodes (432418 simplex iterations) in 128.00 seconds (142.90 work units)
Thread count was 1 (of 72 available processors)

Solution count 4: -2260 -2238 -636 0 

Time limit reached
Best objective -2.260000000000e+03, best bound -2.334000000000e+03, gap 3.2743%

User-callback calls 12914, time in user-callback 0.05 sec

BQP_SOLUTION, 383, 1592, -844.000000, 128.000456, -1, 1, -1, 1, 1, -1, 1, -1, 1, -1, -1, 1, -1, -1, 1, -1, -1, 1, 1, 1, -1, -1, -1, 1, 1, -1, -1, 1, -1, 1, -1, 1, 1, -1, -1, 1, 1, 1, -1, 1, 1, -1, -1, 1, -1, -1, 1, 1, -1, -1, 1, 1, -1, -1, 1, 1, -1, -1, -1, 1, -1, -1, -1, 1, -1, -1, -1, 1, -1, -1, -1, 1, -1, 1, -1, 1, -1, -1, -1, -1, -1, 1, -1, -1, 1, 1, -1, -1, -1, 1, -1, -1, 1, -1, -1, -1, -1, -1, -1, -1, -1, -1, -1, 1, -1, 1, -1, 1, 1, 1, -1, -1, 1, 1, -1, -1, -1, 1, 1, -1, -1, 1, -1, -1, -1, 1, 1, -1, -1, 1, 1, -1, -1, 1, -1, -1, -1, 1, 1, 1, -1, 1, -1, -1, 1, 1, -1, -1, 1, 1, 1, -1, -1, 1, 1, -1, 1, 1, 1, -1, -1, -1, 1, -1, -1, 1, 1, -1, -1, -1, 1, 1, -1, -1, 1, -1, 1, -1, 1, -1, -1, -1, 1, 1, -1, 1, 1, -1, 1, -1, 1, 1, -1, 1, 1, -1, 1, -1, 1, 1, 1, 1, 1, -1, 1, 1, 1, 1, 1, 1, 1, 1, 1, 1, 1, 1, 1, 1, 1, 1, 1, 1, 1, 1, 1, 1, 1, -1, 1, 1, 1, 1, 1, -1, 1, 1, 1, 1, 1, 1, -1, 1, 1, 1, 1, 1, -1, 1, -1, 1, -1, 1, -1, -1, 1, -1, 1, -1, 1, 1, 1, -1, -1, 1, -1, -1, 1, 1, 1, -1, 1, 1, 1, 1, 1, 1, 1, -1, 1, 1, 1, 1, 1, 1, 1, 1, -1, 1, 1, -1, 1, 1, 1, -1, 1, -1, 1, -1, 1, 1, 1, -1, 1, 1, 1, 1, 1, 1, 1, -1, 1, 1, 1, -1, 1, -1, 1, 1, -1, -1, 1, 1, -1, 1, 1, 1, 1, -1, -1, 1, -1, -1, 1, 1, -1, -1, 1, -1, -1, 1, 1, -1, 1, -1, -1, 1, -1, -1, 1, -1, -1, -1, 1, 1, -1, -1, 1, 1, -1, -1, -1, 1, -1, 1, -1, 1, -1, -1, -1, 1, -1, 1, -1, 1, -1, 1, -1, 1, -1, 1, 1, 1, 1
BQP_DATA, 383, 1592, -844.000000, -918.000000, -2260.000000, -2334.000000, 128.000456, 1152, 1097
